c WARNING: for repeatability, setting FPU to use double precision
d VARIABLES            225576       
d CONSTRAINTS          983963       
c ============================[ Problem Statistics ]=============================
c |                                                                             |
c |  Number of variables:        225576                                         |
c |  Number of clauses:          983963                                         |
c |  Parse time:                   0.16 s                                       |
c |                                                                             |
c ============================[ Search Statistics ]==============================
c | Conflicts |          ORIGINAL         |          LEARNT          | Progress |
c |           |    Vars  Clauses Literals |    Limit  Clauses Lit/Cl |          |
c ===============================================================================
c |       100 |  186944   884333  2144089 |   324255      100     16 | 17.126 % |
c |       250 |  186944   884333  2144089 |   356680      250     23 | 17.126 % |
c |       475 |  186932   884333  2144089 |   392349      474     29 | 17.131 % |
c |       812 |  186932   884273  2143945 |   431583      811     69 | 17.131 % |
c |      1318 |  186932   884273  2143945 |   474742     1317     75 | 17.131 % |
c |      2077 |  186932   884273  2143945 |   522216     2076     70 | 17.131 % |
c |      3216 |  186932   884273  2143945 |   574438     3215     96 | 17.131 % |
c |      4924 |  186932   884273  2143945 |   631882     4923     97 | 17.131 % |
c |      7486 |  186932   884273  2143945 |   695070     7485    129 | 17.131 % |
c |     11330 |  186932   884273  2143945 |   764577    11329    118 | 17.131 % |
c |     17096 |  186932   884273  2143945 |   841035    17095    140 | 17.131 % |
c |     25745 |  186932   884273  2143945 |   925138    25744    146 | 17.131 % |
c |     38719 |  186898   884105  2143541 |  1017652    38716    132 | 17.146 % |
c |     58180 |  186898   884105  2143541 |  1119417    58177    163 | 17.146 % |
c |     87372 |  186898   884105  2143541 |  1231359    87369    142 | 17.146 % |
c |    131161 |  186898   884105  2143541 |  1354495   131158    134 | 17.146 % |
c |    196845 |  186898   884105  2143541 |  1489944   196842    131 | 17.146 % |
c |    295371 |  186887   884051  2143411 |  1638939   295367    137 | 17.151 % |
c |    443160 |  186876   883997  2143281 |  1802833   443155    132 | 17.156 % |
c |    664843 |  186876   883997  2143281 |  1983116   664838    141 | 17.156 % |
c |    997368 |  186876   883997  2143281 |  2181428   997363    144 | 17.156 % |
c |   1496156 |  186876   883997  2143281 |  2399571  1496151    150 | 17.156 % |
c ===============================================================================
c restarts              : 4026
c conflicts             : 2036063        (1134 /sec)
c decisions             : 5433824        (0.00 % random) (3028 /sec)
c propagations          : 5615381502     (3128722 /sec)
c conflict literals     : 292302522      (31.30 % deleted)
d RESTARTS             4026
d FAILURES             2036063      
d NODES                5433824      
d BACKTRACKS           5433824      
d PROPAGATIONS         5615381502   
d NOGOODSIZE           143.56 
d MEMORY               1637.00 
d TIME                 1794.78 

s UNKNOWN
